language ESSENCE' 1.0
$ Minion SolverNodes: 49044
$ Minion SolverTotalTime: 1.40405
$ Minion SolverTimeOut: 0
$ Savile Row TotalTime: 0.854
letting carrying be [1, 2, 3, 3, 3, 6, 6, 6, 12, 18, 24, 30, 36, 36, 5, 5]
letting registers be [[-1, -1, -1, 3, 3, 3, 3, 6, 6, 6, 6, 6, 6, 6, 5, 5]]
letting steps be [1, 1, 1, 4, 3, 5, 2, 4, 5, 5, 5, 5, 5, 2, 8, 2]
